(set-info :smt-lib-version 2.6)
(set-logic QF_LIA)
(set-info :category "industrial")
(set-info :status sat)
(declare-fun x0 () Int)
(declare-fun x1 () Int)
(declare-fun x10 () Int)
(declare-fun x11 () Int)
(declare-fun x12 () Int)
(declare-fun x13 () Int)
(declare-fun x14 () Int)
(declare-fun x15 () Int)
(declare-fun x16 () Int)
(declare-fun x17 () Int)
(declare-fun x18 () Int)
(declare-fun x19 () Int)
(declare-fun x2 () Int)
(declare-fun x20 () Int)
(declare-fun x21 () Int)
(declare-fun x22 () Int)
(declare-fun x23 () Int)
(declare-fun x24 () Int)
(declare-fun x25 () Int)
(declare-fun x26 () Int)
(declare-fun x27 () Int)
(declare-fun x28 () Int)
(declare-fun x29 () Int)
(declare-fun x3 () Int)
(declare-fun x30 () Int)
(declare-fun x31 () Int)
(declare-fun x32 () Int)
(declare-fun x33 () Int)
(declare-fun x34 () Int)
(declare-fun x35 () Int)
(declare-fun x36 () Int)
(declare-fun x37 () Int)
(declare-fun x38 () Int)
(declare-fun x39 () Int)
(declare-fun x4 () Int)
(declare-fun x5 () Int)
(declare-fun x6 () Int)
(declare-fun x7 () Int)
(declare-fun x8 () Int)
(declare-fun x9 () Int)
(assert (let ((?v_3 (* 0 x0)) (?v_134 (* 1 x10)) (?v_64 (* 0 x11)) (?v_48 (* 1 x1)) (?v_66 (* 0 x16)) (?v_5 (* 0 x23)) (?v_11 (* 0 x3)) (?v_16 (* 0 x5)) (?v_38 (* 0 x8)) (?v_1 (* 1 x17)) (?v_94 (* 1 x19)) (?v_13 (* 1 x29)) (?v_14 (* 0 x30)) (?v_2 (* 1 x7)) (?v_23 (* 0 x15)) (?v_10 (* 0 x18)) (?v_21 (* 0 x21)) (?v_51 (* 0 x26)) (?v_35 (* 0 x29)) (?v_4 (* 1 x14)) (?v_33 (* 1 x20)) (?v_25 (* 1 x28)) (?v_8 (* 1 x3)) (?v_46 (* 0 x31)) (?v_54 (* 1 x32)) (?v_7 (* 0 x33)) (?v_26 (* 0 x34)) (?v_27 (* 0 x35)) (?v_28 (* 0 x36)) (?v_36 (* 0 x37)) (?v_15 (* 0 x39)) (?v_44 (* 0 x4)) (?v_17 (* 0 x9)) (?v_110 (* 2 x6)) (?v_60 (* 0 x10)) (?v_67 (* 1 x21)) (?v_56 (* 1 x2)) (?v_12 (* 1 x27)) (?v_29 (* 1 x4)) (?v_59 (* 1 x9)) (?v_61 (* 0 x13)) (?v_40 (* 1 x11)) (?v_20 (* 0 x20)) (?v_88 (* 1 x25)) (?v_24 (* 1 x26)) (?v_121 (* 2 x28)) (?v_101 (* 1 x38)) (?v_39 (* 1 x0)) (?v_41 (* 0 x17)) (?v_78 (* 2 x2)) (?v_45 (* 0 x24)) (?v_43 (* 0 x27)) (?v_47 (* 1 x33)) (?v_77 (* 0 x38)) (?v_37 (* 1 x39)) (?v_71 (* 0 x7)) (?v_124 (* 2 x10)) (?v_79 (* 0 x22)) (?v_42 (* 0 x25)) (?v_89 (* 1 x34)) (?v_99 (* 0 x2)) (?v_70 (* 0 x6)) (?v_62 (* 1 x15)) (?v_96 (* 1 x22)) (?v_112 (* 1 x30)) (?v_133 (* 2 x13)) (?v_65 (* 0 x14)) (?v_87 (* 1 x35)) (?v_104 (* 1 x36)) (?v_102 (* 1 x6)) (?v_84 (* 0 x19)) (?v_97 (* 1 x23)) (?v_76 (* 0 x32)) (?v_117 (* 1 x37)) (?v_93 (* 0 x12)) (?v_85 (* 0 x28))) (let ((?v_127 (+ ?v_13 ?v_89)) (?v_132 (* 1 x12)) (?v_123 (* 1 x16)) (?v_100 (* 1 x31)) (?v_103 (* 1 x13)) (?v_109 (* 1 x24)) (?v_118 (* 1 x8)) (?v_119 (* 0 x1)) (?v_136 (* 2 x17)) (?v_139 (* 1 x18)) (?v_140 (* 2 x39)) (?v_137 (* 2 x0)) (?v_130 (* 1 x5)) (?v_138 (* 2 x22)) (?v_143 (+ ?v_102 ?v_59)) (?v_0 (* (- 2) x12)) (?v_80 (* (- 2) x13)) (?v_98 (* (- 1) x21)) (?v_52 (* (- 1) x27)) (?v_6 (* (- 1) x28)) (?v_74 (* (- 1) x33)) (?v_63 (* (- 1) x39)) (?v_22 (* (- 1) x9)) (?v_18 (* (- 1) x10)) (?v_141 (* (- 2) x1)) (?v_73 (* (- 1) x11)) (?v_19 (* (- 1) x13)) (?v_125 (* (- 1) x15)) (?v_9 (* (- 1) x16)) (?v_32 (* (- 1) x17)) (?v_57 (* (- 1) x24)) (?v_50 (* (- 1) x25)) (?v_115 (* (- 1) x26)) (?v_92 (* (- 1) x7)) (?v_49 (* (- 1) x2)) (?v_114 (* (- 1) x22)) (?v_126 (* (- 2) x34)) (?v_53 (* (- 1) x35)) (?v_75 (* (- 1) x37)) (?v_135 (* (- 2) x19)) (?v_30 (* (- 1) x1)) (?v_31 (* (- 1) x12)) (?v_82 (* (- 1) x18)) (?v_69 (* (- 1) x5)) (?v_34 (* (- 1) x6)) (?v_91 (* (- 2) x16)) (?v_81 (* (- 1) x14)) (?v_55 (* (- 1) x23)) (?v_113 (* (- 1) x29)) (?v_131 (* (- 2) x22)) (?v_72 (* (- 2) x3)) (?v_58 (* (- 1) x38)) (?v_106 (* (- 1) x4)) (?v_128 (* (- 2) x18)) (?v_111 (* (- 1) x20)) (?v_116 (* (- 1) x30)) (?v_107 (* (- 1) x19)) (?v_83 (* (- 1) x3)) (?v_68 (* (- 1) x31)) (?v_95 (* (- 2) x2)) (?v_86 (* (- 1) x8)) (?v_90 (* (- 1) x0)) (?v_108 (* (- 1) x32)) (?v_105 (* (- 1) x36)) (?v_129 (* (- 2) x8)) (?v_122 (* (- 1) x34)) (?v_120 (* (- 2) x31)) (?v_142 (* (- 2) x37))) (and (<= (+ ?v_3 (+ ?v_134 (+ ?v_64 (+ ?v_48 (+ ?v_0 (+ ?v_80 (+ ?v_98 (+ ?v_52 (+ ?v_6 (+ ?v_74 (+ ?v_63 (+ ?v_22 (+ ?v_66 (+ ?v_5 (+ ?v_11 (+ ?v_16 (+ ?v_38 (+ ?v_1 (+ ?v_94 (+ ?v_13 (+ ?v_14 ?v_2))))))))))))))))))))) 1) (<= (+ ?v_18 (+ ?v_0 (+ ?v_23 (+ ?v_10 (+ ?v_21 (+ ?v_51 (+ ?v_35 (+ ?v_4 (+ ?v_1 (+ ?v_33 (+ ?v_25 (+ ?v_8 (+ ?v_46 (+ ?v_54 (+ ?v_7 (+ ?v_26 (+ ?v_27 (+ ?v_28 (+ ?v_36 (+ ?v_15 (+ ?v_44 (+ ?v_2 (+ ?v_17 (+ ?v_110 (* 3 x5))))))))))))))))))))))))) 1) (<= (+ ?v_141 (+ ?v_73 (+ ?v_19 (+ ?v_3 (+ ?v_60 (+ ?v_0 (+ ?v_125 (+ ?v_4 (+ ?v_9 (+ ?v_32 (+ ?v_67 (+ (* 2 x20) (+ ?v_5 (+ ?v_56 (+ ?v_57 (+ ?v_50 (+ ?v_115 (+ ?v_6 (+ ?v_92 (+ ?v_7 (+ ?v_12 (+ ?v_8 (+ ?v_29 ?v_59))))))))))))))))))))))) 0) (<= (+ (* (- 2) x17) (+ ?v_3 (+ ?v_61 (+ ?v_40 (+ ?v_9 (+ ?v_10 (+ ?v_49 (+ ?v_20 (+ ?v_114 (+ ?v_5 (+ ?v_11 (+ ?v_88 (+ ?v_24 (+ ?v_12 (+ ?v_121 (+ ?v_13 (+ ?v_126 (+ ?v_53 (+ ?v_75 (+ ?v_14 (+ ?v_15 (+ ?v_101 (+ ?v_16 ?v_17))))))))))))))))))))))) 0) (<= (+ ?v_135 (+ ?v_30 (+ ?v_18 (+ ?v_39 (+ ?v_31 (+ ?v_19 (+ ?v_82 (+ ?v_20 (+ ?v_21 (+ ?v_69 (+ ?v_34 (+ ?v_22 (+ ?v_23 (+ ?v_9 (+ ?v_41 (+ ?v_78 (+ ?v_45 (+ ?v_24 (+ ?v_43 (+ ?v_25 (+ ?v_14 (+ ?v_47 (+ ?v_26 (+ ?v_27 (+ ?v_28 (+ ?v_77 (+ ?v_37 (+ ?v_71 ?v_29)))))))))))))))))))))))))))) 0) (<= (+ ?v_30 (+ ?v_19 (+ ?v_124 (+ ?v_31 (+ ?v_9 (+ ?v_32 (+ ?v_10 (+ ?v_33 (+ ?v_34 (+ ?v_22 (+ ?v_79 (+ ?v_5 (+ ?v_42 (+ ?v_35 (+ ?v_14 (+ ?v_27 (+ ?v_28 (+ (* 3 x32) (+ ?v_36 (+ ?v_37 (+ ?v_16 (+ ?v_2 (+ ?v_38 ?v_89))))))))))))))))))))))) (- 1)) (<= (+ ?v_39 (+ ?v_40 (+ ?v_91 (+ ?v_31 (+ ?v_81 (+ ?v_55 (+ ?v_113 (+ ?v_22 (+ ?v_41 (+ ?v_99 (+ ?v_42 (+ ?v_43 (+ ?v_44 (+ ?v_16 (+ ?v_70 (+ ?v_38 (+ ?v_62 (+ ?v_96 (+ ?v_45 (+ ?v_25 (+ ?v_46 (+ ?v_112 (+ ?v_47 (* 2 x34)))))))))))))))))))))))) 0) (<= (+ ?v_48 (+ ?v_131 (+ ?v_72 (+ (* (- 2) x7) (+ ?v_31 (+ ?v_133 (+ ?v_23 (+ ?v_4 (+ ?v_9 (+ ?v_41 (+ ?v_49 (+ ?v_50 (+ ?v_51 (+ ?v_52 (+ ?v_6 (+ ?v_53 (+ ?v_58 (+ ?v_28 (+ ?v_54 (+ ?v_36 (+ ?v_106 (+ ?v_34 (+ ?v_22 (+ ?v_46 (+ ?v_7 ?v_38))))))))))))))))))))))))) (- 1)) (<= (+ ?v_30 (+ ?v_40 (+ ?v_128 (+ ?v_31 (+ ?v_111 (+ ?v_55 (+ ?v_65 (+ ?v_23 (+ ?v_9 (+ ?v_56 (+ ?v_57 (+ ?v_52 (+ ?v_6 (+ ?v_116 (+ ?v_58 (+ ?v_34 (+ ?v_46 (+ ?v_54 (+ ?v_7 (+ ?v_28 (+ ?v_87 (+ ?v_37 ?v_59)))))))))))))))))))))) 1) (<= (+ ?v_3 (+ ?v_60 (+ ?v_31 (+ ?v_61 (+ ?v_32 (+ ?v_107 (+ ?v_33 (+ ?v_5 (+ ?v_50 (+ ?v_83 (+ ?v_43 (+ ?v_62 (+ ?v_25 (+ ?v_13 (+ ?v_68 (+ ?v_63 (+ ?v_7 (+ ?v_26 (+ ?v_27 (+ ?v_104 (+ ?v_44 (+ ?v_16 (+ ?v_17 ?v_102))))))))))))))))))))))) 0) (<= (+ ?v_64 (+ ?v_48 (+ (* (- 3) x28) (+ ?v_95 (+ ?v_31 (+ ?v_65 (+ ?v_66 (+ ?v_10 (+ ?v_84 (+ ?v_20 (+ ?v_11 (+ ?v_67 (+ ?v_97 (+ ?v_13 (+ ?v_68 (+ ?v_53 (+ ?v_76 (+ ?v_7 (+ ?v_117 (+ ?v_44 (+ ?v_69 (+ ?v_70 (+ ?v_71 (+ ?v_86 (+ ?v_26 ?v_17))))))))))))))))))))))))) 0) (<= (+ ?v_72 (+ ?v_30 (+ ?v_73 (+ ?v_61 (+ ?v_9 (+ ?v_55 (+ ?v_74 (+ ?v_75 (+ ?v_93 (+ ?v_65 (+ ?v_23 (+ ?v_20 (+ ?v_51 (+ ?v_43 (+ ?v_85 (+ ?v_35 (+ ?v_76 (+ ?v_77 (+ ?v_15 (+ ?v_16 (+ ?v_71 (+ ?v_1 (+ ?v_59 (+ ?v_78 ?v_79)))))))))))))))))))))))) 0) (<= (+ ?v_80 (+ ?v_90 (+ ?v_60 (+ ?v_81 (+ ?v_62 (+ ?v_9 (+ ?v_32 (+ ?v_82 (+ ?v_83 (+ ?v_84 (+ ?v_21 (+ ?v_33 (+ ?v_85 (+ ?v_74 (+ ?v_58 (+ ?v_34 (+ ?v_86 (+ ?v_35 (+ ?v_76 (+ ?v_15 (+ ?v_87 (+ ?v_44 (+ ?v_2 (+ ?v_17 (+ ?v_88 (+ ?v_78 ?v_89)))))))))))))))))))))))))) 0) (<= (+ (* (- 3) x1) (+ ?v_90 (+ ?v_73 (+ ?v_19 (+ ?v_91 (+ ?v_57 (+ ?v_52 (+ ?v_83 (+ ?v_68 (+ ?v_92 (+ ?v_93 (+ ?v_23 (+ ?v_10 (+ ?v_94 (+ ?v_33 (+ ?v_79 (+ ?v_42 (+ ?v_51 (+ ?v_27 (+ ?v_36 (+ ?v_77 (+ ?v_15 (+ ?v_25 ?v_127))))))))))))))))))))))) 0) (<= (+ ?v_30 (+ ?v_60 (+ ?v_61 (+ ?v_84 (+ ?v_95 (+ ?v_57 (+ ?v_52 (+ ?v_108 (+ ?v_58 (+ ?v_22 (+ ?v_42 (+ ?v_11 (+ ?v_44 (+ ?v_70 (+ ?v_71 (+ ?v_38 (+ ?v_132 (+ ?v_123 (+ ?v_1 (+ ?v_33 (+ ?v_96 (+ ?v_97 ?v_100)))))))))))))))))))))) 1) (<= (+ ?v_98 (+ ?v_105 (+ ?v_39 (+ ?v_48 (+ ?v_57 (+ ?v_93 (+ ?v_103 (+ ?v_65 (+ ?v_41 (+ ?v_94 (+ ?v_99 (+ ?v_33 (+ ?v_43 (+ ?v_76 (+ ?v_7 (+ ?v_27 (+ ?v_36 (+ ?v_15 (+ ?v_71 (+ ?v_96 (+ ?v_97 (+ ?v_88 (+ ?v_24 (+ ?v_14 (+ ?v_100 (+ ?v_89 (+ ?v_101 (+ ?v_29 ?v_102)))))))))))))))))))))))))))) (- 1)) (<= (+ ?v_30 (+ ?v_129 (+ ?v_32 (+ ?v_52 (+ ?v_6 (+ ?v_74 (+ ?v_75 (+ ?v_58 (+ ?v_69 (+ ?v_3 (+ ?v_60 (+ ?v_64 (+ ?v_122 (+ ?v_93 (+ ?v_103 (+ ?v_23 (+ ?v_66 (+ ?v_10 (+ ?v_21 (+ ?v_79 (+ ?v_97 (+ ?v_24 (+ ?v_13 (+ ?v_14 (+ ?v_46 (+ ?v_76 (+ ?v_27 (+ ?v_15 (+ ?v_104 ?v_44))))))))))))))))))))))))))))) 0) (<= (+ ?v_30 (+ ?v_105 (+ ?v_58 (+ ?v_64 (+ ?v_106 (+ ?v_69 (+ ?v_93 (+ ?v_65 (+ ?v_23 (+ ?v_41 (+ ?v_51 (+ ?v_43 (+ ?v_11 (+ ?v_70 (+ ?v_96 (+ ?v_97 (+ ?v_25 (+ ?v_47 (+ (* 2 x25) (+ (* 2 x29) (+ ?v_46 (+ ?v_26 (+ ?v_109 (+ ?v_87 (+ ?v_37 ?v_2))))))))))))))))))))))))) (- 1)) (<= (+ ?v_60 (+ ?v_73 (+ ?v_61 (+ ?v_48 (+ (* (- 2) x28) (+ ?v_23 (+ ?v_9 (+ ?v_82 (+ ?v_107 (+ ?v_21 (+ ?v_79 (+ ?v_35 (+ ?v_97 (+ ?v_120 (+ ?v_108 (+ ?v_58 (+ ?v_106 (+ ?v_92 (+ ?v_93 (+ ?v_17 (+ ?v_109 (+ ?v_88 (+ ?v_89 (+ ?v_87 (+ ?v_110 ?v_118))))))))))))))))))))))))) 0) (<= (+ ?v_18 (+ ?v_64 (+ ?v_39 (+ ?v_48 (+ ?v_81 (+ ?v_111 (+ ?v_55 (+ ?v_50 (+ ?v_74 (+ ?v_93 (+ ?v_23 (+ ?v_94 (+ ?v_79 (+ ?v_45 (+ ?v_85 (+ ?v_11 (+ ?v_28 (+ ?v_36 (+ ?v_71 (+ ?v_12 (+ ?v_26 (+ ?v_16 (+ ?v_38 (+ ?v_112 ?v_102)))))))))))))))))))))))) 0) (<= (+ ?v_82 (+ ?v_95 (+ (* (- 2) x20) (+ ?v_113 (+ ?v_3 (+ ?v_119 (+ ?v_93 (+ ?v_103 (+ ?v_65 (+ ?v_23 (+ ?v_84 (+ ?v_67 (+ ?v_79 (+ ?v_51 (+ ?v_43 (+ ?v_11 (+ ?v_46 (+ ?v_7 (+ ?v_28 (+ ?v_36 (+ ?v_15 (+ ?v_44 (+ ?v_38 (+ ?v_109 (+ ?v_88 (+ ?v_25 ?v_112)))))))))))))))))))))))))) 1) (<= (+ ?v_30 (+ ?v_82 (+ ?v_98 (+ ?v_114 (+ ?v_115 (+ ?v_58 (+ ?v_93 (+ ?v_103 (+ ?v_65 (+ ?v_23 (+ ?v_84 (+ ?v_97 (+ ?v_45 (+ ?v_35 (+ ?v_8 (+ ?v_116 (+ ?v_46 (+ ?v_54 (+ ?v_26 (+ ?v_117 (+ ?v_44 (+ ?v_17 ?v_118)))))))))))))))))))))) 1) (<= (+ ?v_115 (+ ?v_119 (+ ?v_40 (+ ?v_49 (+ ?v_120 (+ ?v_75 (+ ?v_93 (+ ?v_61 (+ ?v_66 (+ ?v_43 (+ ?v_121 (+ ?v_35 (+ ?v_8 (+ ?v_76 (+ ?v_7 (+ ?v_15 (+ ?v_29 (+ ?v_16 (+ ?v_70 (+ ?v_136 (+ ?v_109 (+ ?v_116 (+ ?v_89 (+ ?v_2 ?v_118)))))))))))))))))))))))) (- 1)) (<= (+ (* (- 2) x35) (+ ?v_111 (+ ?v_55 (+ ?v_83 (+ ?v_105 (+ ?v_3 (+ ?v_48 (+ ?v_40 (+ ?v_57 (+ ?v_68 (+ ?v_108 (+ ?v_122 (+ ?v_22 (+ ?v_93 (+ ?v_103 (+ ?v_10 (+ ?v_84 (+ ?v_35 (+ ?v_7 (+ ?v_71 (+ ?v_1 (+ ?v_56 (+ ?v_116 (+ ?v_102 ?v_118)))))))))))))))))))))))) 0) (<= (+ ?v_61 (+ ?v_48 (+ ?v_82 (+ ?v_111 (+ ?v_52 (+ ?v_58 (+ ?v_63 (+ ?v_22 (+ ?v_93 (+ ?v_41 (+ ?v_99 (+ ?v_4 (+ ?v_62 (+ ?v_79 (+ ?v_51 (+ ?v_85 (+ ?v_123 (+ ?v_97 (+ ?v_8 (+ ?v_116 (+ ?v_76 (+ ?v_7 (+ ?v_26 (+ ?v_87 (+ ?v_104 (+ ?v_44 (+ ?v_71 ?v_38))))))))))))))))))))))))))) 1) (<= (+ ?v_48 (+ ?v_124 (+ ?v_82 (+ (* (- 2) x27) (+ ?v_93 (+ ?v_103 (+ ?v_4 (+ ?v_66 (+ ?v_67 (+ ?v_79 (+ ?v_85 (+ ?v_35 (+ ?v_11 (+ ?v_116 (+ ?v_105 (+ ?v_27 (+ ?v_69 (+ ?v_22 (+ ?v_100 (+ ?v_47 (+ ?v_89 (+ ?v_37 ?v_102)))))))))))))))))))))) 0) (<= (+ ?v_119 (+ ?v_64 (+ ?v_9 (+ ?v_98 (+ ?v_55 (+ ?v_6 (+ ?v_83 (+ ?v_58 (+ ?v_93 (+ ?v_61 (+ ?v_41 (+ ?v_10 (+ ?v_51 (+ ?v_94 (+ ?v_43 (+ ?v_76 (+ ?v_44 (+ ?v_70 (+ ?v_17 (+ ?v_96 (+ ?v_88 (+ ?v_13 (+ ?v_116 (+ ?v_26 (+ ?v_117 (* 2 x5)))))))))))))))))))))))))) (- 1)) (<= (+ ?v_3 (+ ?v_61 (+ ?v_48 (+ ?v_40 (+ ?v_125 (+ ?v_9 (+ ?v_84 (+ ?v_55 (+ ?v_99 (+ ?v_21 (+ ?v_42 (+ ?v_24 (+ ?v_43 (+ ?v_8 (+ ?v_68 (+ ?v_7 (+ ?v_126 (+ ?v_69 (+ ?v_93 (+ ?v_45 (+ ?v_116 (+ ?v_27 (+ ?v_28 (+ ?v_36 (+ ?v_15 (+ ?v_71 (+ ?v_17 (+ ?v_29 ?v_118)))))))))))))))))))))))))))) (- 1)) (<= (+ ?v_72 (+ ?v_119 (+ ?v_60 (+ ?v_61 (+ ?v_111 (+ ?v_86 (+ ?v_39 (+ ?v_4 (+ ?v_66 (+ ?v_51 (+ ?v_27 (+ ?v_139 (+ ?v_25 (+ ?v_54 (+ ?v_104 (+ ?v_140 (+ ?v_44 (+ ?v_16 (+ ?v_70 (+ ?v_17 (+ ?v_56 (+ ?v_97 (+ ?v_12 ?v_127))))))))))))))))))))))) 0) (<= (+ ?v_73 (+ ?v_119 (+ ?v_128 (+ ?v_107 (+ (* (- 2) x29) (+ ?v_72 (+ ?v_55 (+ ?v_63 (+ ?v_65 (+ ?v_23 (+ ?v_66 (+ ?v_41 (+ ?v_99 (+ ?v_21 (+ ?v_45 (+ ?v_42 (+ ?v_51 (+ ?v_85 (+ ?v_7 (+ ?v_28 (+ ?v_71 (+ ?v_17 (+ ?v_12 (+ ?v_100 (+ ?v_54 (+ ?v_102 (* 3 x4))))))))))))))))))))))))))) 1) (<= (+ ?v_30 (+ ?v_73 (+ ?v_129 (+ ?v_137 (+ ?v_125 (+ ?v_98 (+ ?v_115 (+ ?v_76 (+ ?v_74 (+ ?v_15 (+ ?v_22 (+ ?v_79 (+ ?v_43 (+ ?v_85 (+ ?v_44 (+ ?v_123 (+ ?v_1 (+ ?v_45 (+ ?v_13 (+ ?v_14 (+ ?v_46 (+ ?v_26 (+ ?v_104 (+ ?v_117 (+ ?v_130 ?v_2))))))))))))))))))))))))) 0) (<= (+ ?v_119 (+ ?v_82 (+ ?v_95 (+ ?v_50 (+ ?v_75 (+ ?v_58 (+ ?v_86 (+ ?v_39 (+ ?v_40 (+ ?v_103 (+ ?v_125 (+ ?v_4 (+ ?v_114 (+ ?v_66 (+ ?v_41 (+ ?v_97 (+ ?v_68 (+ ?v_45 (+ ?v_24 (+ ?v_35 (+ ?v_8 (+ ?v_14 (+ ?v_76 (+ ?v_28 (+ ?v_44 ?v_130))))))))))))))))))))))))) 1) (<= (+ ?v_19 (+ (* 2 x1) (+ ?v_125 (+ ?v_107 (+ ?v_41 (+ ?v_49 (+ ?v_98 (+ ?v_65 (+ ?v_33 (+ ?v_131 (+ ?v_50 (+ ?v_92 (+ ?v_22 (+ ?v_45 (+ ?v_51 (+ ?v_12 (+ ?v_35 (+ ?v_54 (+ ?v_7 (+ ?v_26 (+ ?v_44 (+ ?v_132 (+ ?v_87 (+ ?v_117 (+ ?v_130 ?v_118))))))))))))))))))))))))) 0) (<= (+ ?v_119 (+ ?v_60 (+ ?v_133 (+ ?v_82 (+ ?v_49 (+ ?v_75 (+ ?v_34 (+ ?v_65 (+ ?v_21 (+ ?v_1 (+ ?v_94 (+ ?v_79 (+ ?v_45 (+ ?v_12 (+ ?v_25 (+ ?v_13 (+ ?v_46 (+ ?v_7 (+ ?v_27 (+ ?v_28 (+ ?v_101 (+ ?v_71 (+ ?v_38 ?v_132))))))))))))))))))))))) (- 1)) (<= (+ ?v_119 (+ ?v_64 (+ ?v_61 (+ ?v_84 (+ ?v_55 (+ ?v_50 (+ ?v_115 (+ ?v_74 (+ ?v_106 (+ ?v_66 (+ ?v_56 (+ ?v_67 (+ ?v_79 (+ ?v_45 (+ ?v_43 (+ ?v_28 (+ ?v_77 (+ ?v_87 (+ ?v_121 (+ ?v_35 (+ ?v_16 (+ ?v_112 (+ ?v_118 ?v_59))))))))))))))))))))))) (- 1)) (<= (+ ?v_61 (+ ?v_134 (+ ?v_135 (+ ?v_64 (+ (* (- 2) x4) (+ ?v_23 (+ ?v_9 (+ ?v_20 (+ ?v_136 (+ ?v_114 (+ ?v_34 (+ ?v_92 (+ ?v_5 (+ ?v_45 (+ ?v_42 (+ ?v_7 (+ ?v_27 (+ (* 2 x27) (+ ?v_13 (+ ?v_54 (+ ?v_26 (+ ?v_117 ?v_37)))))))))))))))))))))) 0) (<= (+ ?v_30 (+ ?v_32 (+ ?v_111 (+ ?v_55 (+ ?v_74 (+ ?v_63 (+ ?v_34 (+ ?v_92 (+ ?v_137 (+ ?v_65 (+ ?v_99 (+ ?v_85 (+ ?v_76 (+ ?v_36 (+ ?v_77 (+ ?v_44 (+ ?v_16 (+ ?v_17 (+ ?v_62 (+ ?v_138 (+ ?v_45 (+ ?v_12 (+ ?v_116 ?v_87))))))))))))))))))))))) (- 1)) (<= (+ ?v_73 (+ ?v_119 (+ ?v_111 (+ ?v_52 (+ ?v_53 (+ ?v_69 (+ ?v_39 (+ ?v_65 (+ ?v_84 (+ ?v_21 (+ ?v_5 (+ ?v_85 (+ ?v_76 (+ ?v_15 (+ ?v_29 (+ ?v_102 (+ ?v_38 (+ ?v_136 (+ ?v_138 (+ ?v_45 (+ ?v_116 (+ ?v_100 (+ (* 3 x33) ?v_89))))))))))))))))))))))) 0) (<= (+ ?v_134 (+ ?v_64 (+ ?v_61 (+ ?v_111 (+ ?v_55 (+ ?v_83 (+ ?v_105 (+ ?v_63 (+ (* 2 x15) (+ ?v_66 (+ ?v_139 (+ ?v_43 (+ ?v_25 (+ ?v_35 (+ ?v_1 (+ ?v_14 (+ ?v_76 (+ ?v_36 (+ ?v_16 (+ ?v_100 (+ ?v_47 (+ ?v_89 (+ ?v_101 (+ ?v_102 (+ ?v_59 (* 2 x8)))))))))))))))))))))))))) 0) (<= (+ ?v_61 (+ ?v_134 (+ (* (- 2) x23) (+ ?v_125 (+ ?v_111 (+ ?v_65 (+ ?v_41 (+ ?v_21 (+ ?v_56 (+ ?v_114 (+ ?v_74 (+ ?v_58 (+ ?v_35 (+ (* 2 x3) (+ ?v_14 (+ ?v_76 (+ ?v_28 (+ ?v_140 (+ ?v_16 (+ ?v_71 (+ ?v_38 (+ ?v_100 (+ ?v_26 ?v_143))))))))))))))))))))))) 1) (<= (+ ?v_3 (+ ?v_60 (+ ?v_64 (+ ?v_48 (+ ?v_125 (+ ?v_98 (+ ?v_92 (+ ?v_65 (+ ?v_41 (+ ?v_10 (+ ?v_84 (+ ?v_99 (+ (* (- 5) x22) (+ ?v_85 (+ ?v_35 (+ ?v_8 (+ ?v_14 (+ ?v_46 (+ ?v_54 (+ ?v_7 (+ ?v_27 (+ ?v_16 ?v_102)))))))))))))))))))))) 1) (<= (+ ?v_141 (+ ?v_18 (+ ?v_3 (+ (* (- 2) x14) (+ ?v_9 (+ ?v_111 (+ ?v_41 (+ ?v_139 (+ ?v_67 (+ ?v_50 (+ ?v_51 (+ ?v_85 (+ ?v_106 (+ ?v_92 (+ ?v_86 (+ ?v_35 (+ ?v_11 (+ ?v_54 (+ ?v_47 (+ ?v_104 (+ ?v_130 (+ ?v_78 (+ ?v_138 (+ ?v_46 ?v_89)))))))))))))))))))))))) (- 1)) (<= (+ ?v_73 (+ ?v_119 (+ ?v_60 (+ ?v_61 (+ ?v_39 (+ ?v_81 (+ ?v_111 (+ ?v_10 (+ ?v_55 (+ ?v_51 (+ ?v_52 (+ ?v_6 (+ ?v_11 (+ ?v_86 (+ ?v_22 (+ ?v_1 (+ ?v_56 (+ ?v_13 (+ ?v_46 (+ ?v_15 (+ ?v_132 (+ ?v_47 (+ ?v_130 (+ ?v_2 (+ (* 2 x24) ?v_14))))))))))))))))))))))))) 1) (<= (+ ?v_30 (+ ?v_60 (+ ?v_73 (+ ?v_133 (+ ?v_142 (+ ?v_32 (+ ?v_10 (+ ?v_49 (+ ?v_98 (+ ?v_20 (+ ?v_50 (+ ?v_58 (+ ?v_85 (+ ?v_86 (+ ?v_35 (+ ?v_27 (+ ?v_15 (+ ?v_104 (+ ?v_44 (+ ?v_16 (+ ?v_70 (+ ?v_71 (+ ?v_132 (+ ?v_123 (+ ?v_97 ?v_109))))))))))))))))))))))))) (- 1)) (<= (+ ?v_18 (+ ?v_142 (+ ?v_125 (+ ?v_65 (+ ?v_41 (+ ?v_114 (+ ?v_55 (+ ?v_92 (+ ?v_66 (+ ?v_20 (+ ?v_51 (+ ?v_43 (+ ?v_15 (+ ?v_16 (+ ?v_17 (+ ?v_132 (+ (* 2 x19) (+ (* 2 x21) (+ ?v_88 (+ ?v_25 (+ ?v_8 (+ ?v_112 (+ ?v_54 ?v_47))))))))))))))))))))))) 0) (<= (+ ?v_55 (+ ?v_113 (+ ?v_108 (+ ?v_74 (+ ?v_3 (+ ?v_103 (+ ?v_41 (+ ?v_20 (+ ?v_139 (+ ?v_67 (+ ?v_79 (+ ?v_11 (+ ?v_68 (+ ?v_122 (+ ?v_106 (+ ?v_71 (+ ?v_86 (+ ?v_45 (+ ?v_132 (+ ?v_88 (+ (* (- 2) x30) (+ ?v_87 (+ ?v_104 (+ ?v_130 ?v_143)))))))))))))))))))))))) 1) (<= (+ ?v_73 (+ ?v_115 (+ ?v_83 (+ ?v_142 (+ ?v_3 (+ ?v_119 (+ ?v_103 (+ ?v_65 (+ ?v_9 (+ ?v_41 (+ ?v_10 (+ ?v_20 (+ ?v_21 (+ ?v_5 (+ ?v_43 (+ ?v_13 (+ ?v_68 (+ ?v_108 (+ ?v_27 (+ ?v_92 (+ ?v_16 (+ ?v_132 (+ ?v_109 (+ ?v_88 (+ ?v_116 (+ (* 2 x38) ?v_29)))))))))))))))))))))))))) 1) (<= (+ ?v_18 (+ ?v_73 (+ ?v_103 (+ ?v_84 (+ (* (- 2) x5) (+ ?v_99 (+ ?v_20 (+ ?v_21 (+ ?v_5 (+ ?v_42 (+ ?v_24 (+ ?v_43 (+ ?v_85 (+ ?v_77 (+ ?v_87 (+ (* 2 x36) (+ ?v_36 (+ ?v_44 (+ ?v_70 (+ ?v_71 (+ ?v_17 (+ ?v_4 (+ ?v_96 (+ ?v_47 ?v_89)))))))))))))))))))))))) (- 1)) (<= (+ (* (- 2) x10) (+ ?v_3 (+ ?v_119 (+ ?v_64 (+ ?v_61 (+ ?v_23 (+ ?v_9 (+ ?v_82 (+ ?v_94 (+ ?v_49 (+ ?v_55 (+ ?v_113 (+ ?v_83 (+ ?v_108 (+ ?v_75 (+ ?v_92 (+ ?v_42 (+ ?v_109 (+ ?v_24 (+ ?v_12 (+ ?v_14 (+ ?v_70 (+ ?v_100 (+ ?v_101 ?v_130)))))))))))))))))))))))) 0) (<= (+ ?v_48 (+ ?v_125 (+ ?v_10 (+ ?v_49 (+ ?v_114 (+ ?v_6 (+ ?v_108 (+ ?v_106 (+ ?v_86 (+ ?v_66 (+ ?v_5 (+ ?v_1 (+ ?v_42 (+ ?v_51 (+ ?v_43 (+ ?v_109 (+ ?v_13 (+ ?v_8 (+ ?v_116 (+ ?v_7 (+ ?v_36 (+ ?v_77 (+ ?v_100 (+ ?v_89 (+ ?v_87 ?v_2))))))))))))))))))))))))) (- 1))))))
(check-sat)
(exit)
